\ LP format - for model browsing. Use MPS format to capture full model detail.
Minimize
  0 B10(0) + 0 B11(0) + 0 B16(0) + 0 B17(0) + 0 B22(0) + 0 B23(0) + 0 B24(0)
   + 0 B25(0) + 0 B28(0) + 0 B29(0) + 0 B30(0) + 0 B31(0) + 0 B34(0)
   + 0 B35(0) + 0 B36(0) + 0 B37(0) + 0 B38(0) + 0 B39(0) + 0 B40(0)
   + 0 B41(0) + 0 B42(0) + 0 B43(0) + 0 B44(0) + 0 B45(0) + I56(1)
   + 0 B57(0) + 0 B58(0) + 0 B61(0) + 0 B63(0) + 0 B64(0)
Subject To
 c0: B0(9) + B1(13) = 1
 c1: B2(9) + B3(13) = 1
 c2: B4(13) = 1
 c3: B5(14) = 1
 c4: B6(10) + B7(14) = 1
 c5: B8(10) + B9(14) = 1
 c6: - 1e+09 B0(9) + I46(10) <= 0
 c7: - 1e+09 B1(13) + I47(14) <= 0
 c8: - 1e+09 B2(9) + I48(13) <= 0
 c9: - 1e+09 B3(13) + I49(17) <= 0
 c10: - 1e+09 B4(13) + I50(13) <= 0
 c11: - 1e+09 B5(14) + I51(16) <= 0
 c12: - 1e+09 B6(10) + I52(10) <= 0
 c13: - 1e+09 B7(14) + I53(14) <= 0
 c14: - 1e+09 B8(10) + I54(13) <= 0
 c15: - 1e+09 B9(14) + I55(17) <= 0
 c16: - 54 B0(9) - 63 B1(13) - I46(10) - I47(14) + I48(13) + I49(17) >= 0
 c17: - 1.000000054e+09 B0(9) - 63 B1(13) - 1e+09 B2(9) - I46(10) - I47(14)
   + I48(13) + I49(17) >= -1.999999991e+09
 c18: - 54 B0(9) - 1.000000063e+09 B1(13) - 1e+09 B3(13) - I46(10)
   - I47(14) + I48(13) + I49(17) >= -1.999999989e+09
 c19: - 120 B4(13) - I50(13) + I51(16) >= 0
 c20: - 1.00000012e+09 B4(13) - 1e+09 B5(14) - I50(13) + I51(16)
   >= -1.999999989e+09
 c21: - 125 B6(10) - 135 B7(14) - I52(10) - I53(14) + I54(13) + I55(17)
   >= 0
 c22: - 1.000000125e+09 B6(10) - 135 B7(14) - 1e+09 B8(10) - I52(10)
   - I53(14) + I54(13) + I55(17) >= -1.999999991e+09
 c23: - 125 B6(10) - 1.000000135e+09 B7(14) - 1e+09 B9(14) - I52(10)
   - I53(14) + I54(13) + I55(17) >= -1.99999999e+09
 c24: - 1e+09 B1(13) - 1e+09 B4(13) - 1e+09 B12(2) + I47(14) - I50(13)
   >= -2.999999871e+09
 c25: - 1e+09 B1(13) - 1e+09 B4(13) + 1e+09 B12(2) - I47(14) + I50(13)
   >= -1.999999929e+09
 c26: - 1e+09 B1(13) - 1e+09 B5(14) - 1e+09 B13(2) + I47(14) - I51(16)
   >= -2.99999984e+09
 c27: - 1e+09 B1(13) - 1e+09 B5(14) + 1e+09 B13(2) - I47(14) + I51(16)
   >= -1.999999926e+09
 c28: - 1e+09 B0(9) - 1e+09 B6(10) - 1e+09 B14(4) + I46(10) - I52(10)
   >= -2.999999865e+09
 c29: - 1e+09 B0(9) - 1e+09 B6(10) + 1e+09 B14(4) - I46(10) + I52(10)
   >= -1.999999935e+09
 c30: - 1e+09 B1(13) - 1e+09 B7(14) - 1e+09 B14(4) + I47(14) - I53(14)
   >= -2.999999854e+09
 c31: - 1e+09 B1(13) - 1e+09 B7(14) + 1e+09 B14(4) - I47(14) + I53(14)
   >= -1.999999925e+09
 c32: - 1e+09 B0(9) - 1e+09 B8(10) - 1e+09 B15(4) + I46(10) - I54(13)
   >= -2.999999846e+09
 c33: - 1e+09 B0(9) - 1e+09 B8(10) + 1e+09 B15(4) - I46(10) + I54(13)
   >= -1.999999934e+09
 c34: - 1e+09 B1(13) - 1e+09 B9(14) - 1e+09 B15(4) + I47(14) - I55(17)
   >= -2.999999865e+09
 c35: - 1e+09 B1(13) - 1e+09 B9(14) + 1e+09 B15(4) - I47(14) + I55(17)
   >= -1.999999928e+09
 c36: - 1e+09 B3(13) - 1e+09 B4(13) - 1e+09 B18(2) + I49(17) - I50(13)
   >= -2.999999869e+09
 c37: - 1e+09 B3(13) - 1e+09 B4(13) + 1e+09 B18(2) - I49(17) + I50(13)
   >= -1.999999895e+09
 c38: - 1e+09 B3(13) - 1e+09 B5(14) - 1e+09 B19(2) + I49(17) - I51(16)
   >= -2.999999836e+09
 c39: - 1e+09 B3(13) - 1e+09 B5(14) + 1e+09 B19(2) - I49(17) + I51(16)
   >= -1.999999894e+09
 c40: - 1e+09 B2(9) - 1e+09 B6(10) - 1e+09 B20(4) + I48(13) - I52(10)
   >= -2.999999864e+09
 c41: - 1e+09 B2(9) - 1e+09 B6(10) + 1e+09 B20(4) - I48(13) + I52(10)
   >= -1.999999902e+09
 c42: - 1e+09 B3(13) - 1e+09 B7(14) - 1e+09 B20(4) + I49(17) - I53(14)
   >= -2.999999855e+09
 c43: - 1e+09 B3(13) - 1e+09 B7(14) + 1e+09 B20(4) - I49(17) + I53(14)
   >= -1.999999894e+09
 c44: - 1e+09 B2(9) - 1e+09 B8(10) - 1e+09 B21(4) + I48(13) - I54(13)
   >= -2.999999847e+09
 c45: - 1e+09 B2(9) - 1e+09 B8(10) + 1e+09 B21(4) - I48(13) + I54(13)
   >= -1.999999904e+09
 c46: - 1e+09 B3(13) - 1e+09 B9(14) - 1e+09 B21(4) + I49(17) - I55(17)
   >= -2.999999868e+09
 c47: - 1e+09 B3(13) - 1e+09 B9(14) + 1e+09 B21(4) - I49(17) + I55(17)
   >= -1.999999893e+09
 c48: - 1e+09 B4(13) - 1e+09 B7(14) - 1e+09 B26(2) + I50(13) - I53(14)
   >= -2.999999855e+09
 c49: - 1e+09 B4(13) - 1e+09 B7(14) + 1e+09 B26(2) - I50(13) + I53(14)
   >= -1.999999869e+09
 c50: - 1e+09 B4(13) - 1e+09 B9(14) - 1e+09 B27(2) + I50(13) - I55(17)
   >= -2.999999866e+09
 c51: - 1e+09 B4(13) - 1e+09 B9(14) + 1e+09 B27(2) - I50(13) + I55(17)
   >= -1.99999987e+09
 c52: - 1e+09 B5(14) - 1e+09 B7(14) - 1e+09 B32(2) + I51(16) - I53(14)
   >= -2.999999854e+09
 c53: - 1e+09 B5(14) - 1e+09 B7(14) + 1e+09 B32(2) - I51(16) + I53(14)
   >= -1.999999838e+09
 c54: - 1e+09 B5(14) - 1e+09 B9(14) - 1e+09 B33(2) + I51(16) - I55(17)
   >= -2.999999866e+09
 c55: - 1e+09 B5(14) - 1e+09 B9(14) + 1e+09 B33(2) - I51(16) + I55(17)
   >= -1.999999836e+09
 c56: I46(10) >= 0
 c57: I46(10) >= 0
 c58: I47(14) >= 0
 c59: I47(14) >= 0
 c60: I48(13) >= 0
 c61: I48(13) >= 0
 c62: I49(17) >= 0
 c63: I49(17) >= 0
 c64: - 11 B4(13) + I50(13) >= 0
 c65: I50(13) >= 0
 c66: - 11 B5(14) + I51(16) >= 0
 c67: I51(16) >= 0
 c68: - 10 B6(10) + I52(10) >= 0
 c69: I52(10) >= 0
 c70: - 10 B7(14) + I53(14) >= 0
 c71: I53(14) >= 0
 c72: - 10 B8(10) + I54(13) >= 0
 c73: I54(13) >= 0
 c74: - 10 B9(14) + I55(17) >= 0
 c75: I55(17) >= 0
 c76: 87 B2(9) + I48(13) - 1e+09 B59(3) >= -9.99999908e+08
 c77: 87 B2(9) + I48(13) - 1e+09 B59(3) <= 92
 c78: 95 B3(13) + I49(17) - 1e+09 B60(3) >= -9.99999908e+08
 c79: 95 B3(13) + I49(17) - 1e+09 B60(3) <= 92
 c80: 152 B5(14) + I51(16) - 1e+09 B62(3) >= -9.99999917e+08
 c81: 152 B5(14) + I51(16) - 1e+09 B62(3) <= 83
 c82: 143 B8(10) + I54(13) - 1e+09 B65(3) >= -9.99999954e+08
 c83: 143 B8(10) + I54(13) - 1e+09 B65(3) <= 46
 c84: 124 B9(14) + I55(17) - 1e+09 B66(3) >= -9.99999954e+08
 c85: 124 B9(14) + I55(17) - 1e+09 B66(3) <= 46
 c86: - I48(13) - I49(17) - I51(16) - I54(13) - I55(17) + I56(1) + 5 B59(3)
   - 3 B60(3) - 69 B62(3) - 97 B65(3) - 78 B66(3) >= 0
Bounds
Binaries
 B0(9) B1(13) B2(9) B3(13) B4(13) B5(14) B6(10) B7(14) B8(10) B9(14) B10(0)
 B11(0) B12(2) B13(2) B14(4) B15(4) B16(0) B17(0) B18(2) B19(2) B20(4)
 B21(4) B22(0) B23(0) B24(0) B25(0) B26(2) B27(2) B28(0) B29(0) B30(0)
 B31(0) B32(2) B33(2) B34(0) B35(0) B36(0) B37(0) B38(0) B39(0) B40(0)
 B41(0) B42(0) B43(0) B44(0) B45(0) B57(0) B58(0) B59(3) B60(3) B61(0)
 B62(3) B63(0) B64(0) B65(3) B66(3)
Generals
 I46(10) I47(14) I48(13) I49(17) I50(13) I51(16) I52(10) I53(14) I54(13)
 I55(17) I56(1)
End
